20
64
4
71
71
49
29
0 1
0 2
0 3
0 4
0 5
0 11
0 12
0 15
1 7
1 9
1 11
1 14
1 18
2 10
2 11
2 19
3 5
3 13
3 15
4 8
4 9
4 11
4 12
4 13
4 14
4 16
4 19
5 10
5 15
5 19
6 9
6 12
6 13
6 14
6 16
6 18
7 8
7 14
7 18
8 9
8 11
8 14
8 15
8 16
8 17
9 10
9 12
9 13
9 15
9 18
10 11
10 14
10 16
11 17
12 13
12 14
12 16
13 16
13 17
13 18
15 16
15 19
17 18
18 19
5 1 13 9 15
14 18 17 12 4
16 6 11 0 10
7 19 8 2 3
